50	404910

2401 616
8453 5247
6313 7348
8472 1851
1694 3410
520 8524
1715 9883
8695 1098
719 9523
2539 5206
332 6480
1495 2331
8193 2819
278 2494
1383 8528
2612 9651
52 4544
2165 702
3296 8813
6797 1753
1407 4306
4092 3115
5945 1273
5861 7362
9039 4009
1530 9187
6133 6586
8089 5492
1427 8867
3287 2632
49 9195
4192 4814
9883 3303
831 3609
6002 1685
5294 9941
851 7595
3777 283
4861 6067
9213 5214
7927 992
3157 98
8120 5332
1232 8960
577 6428
4762 3290
4571 7673
2161 3543
4377 1956
5684 7875
